10
5
473055
0
0
50 60 49 49 33
1
0
51 58 45 52 33
2
0
53 62 49 50 37
3
0
48 58 47 53 33
4
0
54 61 42 50 35
5
0
53 61 49 49 35
6
0
52 61 47 52 35
7
0
52 59 46 53 33
8
0
52 68 43 49 33
9
0
52 61 45 49 35
